Optimize a model with 311 rows, 1089 columns and 3320 nonzeros
Model has 90 quadratic objective terms
Model has 100 quadratic constraints
Coefficient statistics:
  Matrix range    [1e+00, 9e+02]
  Objective range [0e+00, 0e+00]
  Bounds range    [1e+00, 8e+00]
  RHS range       [1e+00, 2e+03]
Presolve removed 47 rows and 298 columns
Presolve time: 0.01s
Presolved: 2862 rows, 2085 columns, 9954 nonzeros
Variable types: 1384 continuous, 701 integer (692 binary)

Root relaxation: objective 0.000000e+00, 998 iterations, 0.03 seconds

    Nodes    |    Current Node    |     Objective Bounds      |     Work
 Expl Unexpl |  Obj  Depth IntInf | Incumbent    BestBd   Gap | It/Node Time

     0     0    0.00000    0   32          -    0.00000      -     -    0s
H    0     0                    1682.0000000    0.00000   100%     -    0s
H    0     0                    1499.0000000    0.00000   100%     -    0s
H    0     0                    1478.0000000    0.00000   100%     -    0s
H    0     0                    1415.0000000    0.00000   100%     -    0s
     0     0    0.00000    0   48 1415.00000    0.00000   100%     -    0s
     0     0    0.00000    0   40 1415.00000    0.00000   100%     -    0s
     0     0    0.00000    0   93 1415.00000    0.00000   100%     -    0s
H    0     0                     689.0000000    0.00000   100%     -    0s
     0     0    0.00000    0   66  689.00000    0.00000   100%     -    0s
     0     0    0.00000    0   41  689.00000    0.00000   100%     -    0s
     0     0   91.00000    0   29  689.00000   91.00000  86.8%     -    0s
     0     0   91.00000    0   40  689.00000   91.00000  86.8%     -    0s
     0     0  122.50000    0   99  689.00000  122.50000  82.2%     -    0s
     0     0  122.50000    0  103  689.00000  122.50000  82.2%     -    0s
     0     0  122.50000    0  107  689.00000  122.50000  82.2%     -    1s
     0     0  122.50000    0  106  689.00000  122.50000  82.2%     -    1s
     0     0  122.50000    0   39  689.00000  122.50000  82.2%     -    1s
     0     0  122.50000    0   56  689.00000  122.50000  82.2%     -    1s
     0     0  122.50000    0   42  689.00000  122.50000  82.2%     -    2s
H    0     0                     654.2500000  122.50000  81.3%     -    2s
     0     0  122.50000    0   27  654.25000  122.50000  81.3%     -    2s
H    0     2                     436.7500000  122.50000  72.0%     -    2s
     0     2  122.50000    0   25  436.75000  122.50000  72.0%     -    2s
   651   391  372.33120   29   87  436.75000  128.75000  70.5%   159    5s
H  925   473                     385.0833333  131.38889  65.9%   146    6s
  1154   593  189.94444   13  171  385.08333  143.13874  62.8%   147   10s
  1180   610  233.47224   14  277  385.08333  233.47224  39.4%   144   15s
  1217   637  237.04732   17  237  385.08333  237.04732  38.4%   158   20s
  1235   649  237.14301   11  245  385.08333  237.14301  38.4%   156   25s
  1260   667  239.54119   22  236  385.08333  239.54119  37.8%   170   33s
  1261   668  293.73615   22  219  385.08333  239.71624  37.7%   171   36s
  1262   669  240.10428   23  259  385.08333  240.10428  37.6%   171   40s
  1270   673  250.88739   26  244  385.08333  250.88739  34.8%   174   46s
H 1297   644                     385.0000000  258.05110  33.0%   181   49s
* 1301   607              27     296.1666667  258.05110  12.9%   182   49s
  1342   577  295.70708   32   36  296.16667  262.71773  11.3%   182   50s

Cutting planes:
  Cover: 14
  Implied bound: 221
  MIR: 205
  Flow cover: 217
  GUB cover: 1

Explored 1515 nodes (296434 simplex iterations) in 53.73 seconds
Thread count was 8 (of 8 available processors)

Optimal solution found (tolerance 1.00e-04)
Best objective 2.961666666665e+02, best bound 2.961666666665e+02, gap 0.0%

Solution:
0 2 8 9 
1 0 0 0 

Cost: 296.167
Lower Bound: 296.167
